p cnf 29 66
6 1 0 6 3 0 -6 -1 -3 0
7 1 0 7 3 0 -7 -1 -3 0
8 3 0 8 4 0 -8 -3 -4 0
9 3 0 9 4 0 -9 -3 -4 0
10 8 0 10 2 0 -10 -8 -2 0
11 9 0 11 2 0 -11 -9 -2 0
12 8 0 12 5 0 -12 -8 -5 0
13 9 0 13 5 0 -13 -9 -5 0
14 10 0 14 6 0 -14 -10 -6 0
15 11 0 15 7 0 -15 -11 -7 0
16 10 0 16 12 0 -16 -10 -12 0
17 11 0 17 13 0 -17 -11 -13 0
-14 -18 0 14 18 0
-15 -19 0 15 19 0
-16 -20 0 16 20 0
-17 -21 0 17 21 0
-22 14 0 -22 19 0 22 -14 -19 0
-23 15 0 -23 18 0 23 -15 -18 0
-24 16 0 -24 21 0 24 -16 -21 0
-25 17 0 -25 20 0 25 -17 -20 0
26 -22 0 26 -23 0 -26 22 23 0
27 -24 0 27 -25 0 -27 24 25 0
-26 28 0 26 -28 0
-27 29 0 27 -29 0
